4779
9850
4009
3902
3624
1633
9958
2123
1481
8536
5124
4760
9723
1187
3491
6669
9519
3360
2309
10054
1558
4005
4561
3026
1376
7451
7789
7725
9962
5282
5235
8817
8306
3628
3999
9258
7031
4434
2548
5047
5883
628
1052
445
6875
5933
1641
7544
3245
3557
2226
